
========================================
         Starting Pipeline for: SkipList7 (Mode: ContextualCVC5)
========================================
Initializing pipeline for benchmark: 'SkipList7'
   -> Loading and validating attributes from: /Dualis/scripts/../benchmarks/Classical/SkipList7/Attributes.txt
      -> Validation successful. Attribute file is consistent.
Total External Iterations: 0
Total Unique Test Cases Found: 0

==================== Iteration: 1 ====================
TIMEOUT : 20
   -> Parsing SYGUS file: /Dualis/scripts/../benchmarks/ContextualCVC5_working_temp/SkipList7/SkipList7.sy
   -> Starting CVC5 with a 1000-second timeout...
      -> Logging CVC5 output to iter_1.log
   -> CVC5 completed successfully.
   -> Writing new specs to harness: SkipList7_fuzz.cpp...
      -> Successfully created working copy '/Dualis/scripts/../benchmarks/ContextualCVC5_working_temp/SkipList7/SkipList7_fuzz.cpp'.
   -> Starting AFL++(SkipList7_fuzz) with a 20-second timeout...
   -> Building AFL-instrumented binary: /Dualis/scripts/../benchmarks/ContextualCVC5_working_temp/SkipList7/SkipList7_fuzz
   -> AFL++(SkipList7_fuzz) finished its fuzzing session.
   -> Checking fuzzing outputs for counterexamples...
Checking crashes
Checking queue
   -> Found 94 crash reports. Testing reproducibility...
   -> CRASH REPRODUCED with id:000001,src:000000,time:0,execs:10,op:(null),pos:0,+cov
Checking hangs
   -> Converting counterexamples for 'SkipList7'...
   -> Updating CHC file with new counterexamples...

=============== Artifacts This Iteration ===============

--- Generated Specs ---
  insert: (v <= v)
  lower_bound: (lb_ret1 == max)
  inv1: (i == i)

--- New Test Cases Found ---

--- Updated SYGUS (for next iteration) ---
(set-logic LIA)

(synth-fun insert ((v Int) (isPresent Int) (min Int) (max Int) (len Int) (isPresent1 Int) (min1 Int) (max1 Int) (len1 Int)) Bool ((Start Bool) (Expr Int)) ((Start Bool ((<= Expr Expr)(>= Expr Expr)(= Expr Expr)(and Start Start)(or Start Start)(not Start)))(Expr Int ((+ Expr Expr)(- Expr Expr) v isPresent min max len isPresent1 min1 max1 len1))))
(synth-fun lower_bound ((max Int) (lb_ret1 Int)) Bool ((Start Bool) (Expr Int)) ((Start Bool ((<= Expr Expr)(>= Expr Expr)(= Expr Expr)(and Start Start)(or Start Start)(not Start)))(Expr Int ((+ Expr Expr)(- Expr Expr) max lb_ret1))))
(synth-fun inv1 ((i Int) (N Int) (isPresent Int) (min Int) (max Int) (len Int)) Bool ((Start Bool) (Expr Int)) ((Start Bool ((<= Expr Expr)(>= Expr Expr)(= Expr Expr)(and Start Start)(or Start Start)(not Start)))(Expr Int ((+ Expr Expr)(- Expr Expr) i N isPresent min max len))))

(declare-var N Int)
(declare-var i Int)
(declare-var i1 Int)
(declare-var min Int)
(declare-var min1 Int)
(declare-var max Int)
(declare-var max1 Int)
(declare-var isPresent Int)
(declare-var isPresent1 Int)
(declare-var len Int)
(declare-var len1 Int)
(declare-var v Int)
(declare-var lb_ret1 Int)


(constraint (=> (and (> N 0) (= i 0) (= min 10) (= max -10)) (inv1 i N isPresent min max len)))
(constraint (=> (and (inv1 i N isPresent min max len) (or (= isPresent 1) (= isPresent 0)) (< i N) (insert v isPresent min max len isPresent1 min1 max1 len1) (= i1 (+ i 1))) (inv1 i1 N isPresent1 min1 max1 len1)))
(constraint (=> (and (inv1 i N isPresent min max len) (or (= isPresent 1) (= isPresent 0)) (not (< i N)) (lower_bound max lb_ret1)) (= lb_ret1 max)))

(check-synth)
==============================================================
   -> Checking if specs have changed...
      -> SYGUS files are different. Continuing iteration.

==================== Iteration: 2 ====================
TIMEOUT : 40
   -> Parsing SYGUS file: /Dualis/scripts/../benchmarks/ContextualCVC5_working_temp/SkipList7/SkipList7.sy
   -> Starting CVC5 with a 1000-second timeout...
      -> Logging CVC5 output to iter_2.log
   -> CVC5 completed successfully.
   -> Writing new specs to harness: SkipList7_fuzz.cpp...
      -> Successfully created working copy '/Dualis/scripts/../benchmarks/ContextualCVC5_working_temp/SkipList7/SkipList7_fuzz.cpp'.
   -> Starting AFL++(SkipList7_fuzz) with a 40-second timeout...
   -> Building AFL-instrumented binary: /Dualis/scripts/../benchmarks/ContextualCVC5_working_temp/SkipList7/SkipList7_fuzz
   -> AFL++(SkipList7_fuzz) finished its fuzzing session.
   -> Checking fuzzing outputs for counterexamples...
Checking crashes
Checking queue
   -> Found 96 crash reports. Testing reproducibility...
   -> CRASH REPRODUCED with id:000001,src:000000,time:0,execs:10,op:(null),pos:0,+cov
Checking hangs
   -> Converting counterexamples for 'SkipList7'...
   -> Updating CHC file with new counterexamples...

=============== Artifacts This Iteration ===============

--- Generated Specs ---
  insert: (v <= v)
  lower_bound: (lb_ret1 == max)
  inv1: (i == i)

--- New Test Cases Found ---

--- Updated SYGUS (for next iteration) ---
(set-logic LIA)

(synth-fun insert ((v Int) (isPresent Int) (min Int) (max Int) (len Int) (isPresent1 Int) (min1 Int) (max1 Int) (len1 Int)) Bool ((Start Bool) (Expr Int)) ((Start Bool ((<= Expr Expr)(>= Expr Expr)(= Expr Expr)(and Start Start)(or Start Start)(not Start)))(Expr Int ((+ Expr Expr)(- Expr Expr) v isPresent min max len isPresent1 min1 max1 len1))))
(synth-fun lower_bound ((max Int) (lb_ret1 Int)) Bool ((Start Bool) (Expr Int)) ((Start Bool ((<= Expr Expr)(>= Expr Expr)(= Expr Expr)(and Start Start)(or Start Start)(not Start)))(Expr Int ((+ Expr Expr)(- Expr Expr) max lb_ret1))))
(synth-fun inv1 ((i Int) (N Int) (isPresent Int) (min Int) (max Int) (len Int)) Bool ((Start Bool) (Expr Int)) ((Start Bool ((<= Expr Expr)(>= Expr Expr)(= Expr Expr)(and Start Start)(or Start Start)(not Start)))(Expr Int ((+ Expr Expr)(- Expr Expr) i N isPresent min max len))))

(declare-var N Int)
(declare-var i Int)
(declare-var i1 Int)
(declare-var min Int)
(declare-var min1 Int)
(declare-var max Int)
(declare-var max1 Int)
(declare-var isPresent Int)
(declare-var isPresent1 Int)
(declare-var len Int)
(declare-var len1 Int)
(declare-var v Int)
(declare-var lb_ret1 Int)


(constraint (=> (and (> N 0) (= i 0) (= min 10) (= max -10)) (inv1 i N isPresent min max len)))
(constraint (=> (and (inv1 i N isPresent min max len) (or (= isPresent 1) (= isPresent 0)) (< i N) (insert v isPresent min max len isPresent1 min1 max1 len1) (= i1 (+ i 1))) (inv1 i1 N isPresent1 min1 max1 len1)))
(constraint (=> (and (inv1 i N isPresent min max len) (or (= isPresent 1) (= isPresent 0)) (not (< i N)) (lower_bound max lb_ret1)) (= lb_ret1 max)))

(check-synth)
==============================================================
   -> Checking if specs have changed...
      -> SYGUS files are identical. Pipeline has converged.
   -> 15-minute deep fuzzing converged. Pipeline complete.

==================== Finalizing Pipeline ====================

====================== Pipeline Finished =====================
Total External Iterations: 2
Total Unique Test Cases Found: 0
pipeline.run() took 0.0653 seconds.
Running command: /usr/bin/python3 chcverifynfuzz.py ContextualCVC5 SkipList7
PID: 35
========================================


Total Pipeline Duration: 63.50s
